158
10000
268
4239
2073
540
4518
2773
3225
2907
66
6505
1379
309
1947
1316
807
3957
3932
498
4838
3351
5598
4168
148
1044
3075
3495
2562
1220
5355
2204
959
128
1401
4360
445
1086
2390
1612
2159
2643
3555
4875
1473
1148
2774
7473
734
3822
2638
677
1386
2579
1195
3475
4426
3028
6223
7454
5300
5899
3402
1855
1568
5921
443
1009
893
3637
2474
2546
3245
2124
2857
5050
1016
2311
7472
4532
4965
6715
818
2
4484
2274
4561
383
6079
3240
4926
58
4658
1516
2443
1515
2242
769
2277
5170
5950
5338
5206
5761
3922
6583
849
2528
3785
3544
2607
7193
1154
2970
1653
7227
815
3155
4476
2456
6215
1026
1646
1375
3478
796
1101
2196
1472
1559
186
969
1554
977
2731
6416
5584
2196
621
1072
888
4194
2116
481
5882
2326
1177
2479
4079
1934
5074
1748
1726
2099
694
216
4402
5433
605
5021
